p cnf 665 1895
a 1 2 3 4 5 6 7 8 9 10 11 12 13 14 15 16 17 18 19 20 21 22 23 24 25 26 27 28 29 30 31 32 33 34 35 36 37 38 39 40 41 42 43 44 45 46 47 48 49 50 51 52 53 54 55 56 0
e 57 58 59 60 61 62 63 64 65 66 67 68 69 70 71 72 73 74 75 76 77 78 79 80 81 82 83 84 85 86 87 88 89 90 91 92 93 94 95 96 97 98 99 100 101 102 103 104 105 106 107 108 109 110 111 112 113 114 115 116 117 118 119 120 121 122 123 124 125 126 127 128 129 130 131 132 133 134 135 136 137 138 139 140 141 142 143 144 145 146 147 148 149 150 151 152 153 154 155 156 157 158 159 160 161 162 163 164 165 166 167 168 169 170 171 172 173 174 175 176 177 178 179 180 181 182 183 184 185 186 187 188 189 190 191 192 193 194 195 196 197 198 199 200 201 202 203 204 205 206 207 208 209 210 211 212 213 214 215 216 217 218 219 220 221 222 223 224 225 226 227 228 229 230 231 232 233 234 235 236 237 238 239 240 241 242 243 244 245 246 247 248 249 250 251 252 253 254 255 256 257 258 259 260 261 262 263 264 265 266 267 268 269 270 271 272 273 274 275 276 277 278 279 280 281 282 283 284 285 286 287 288 289 290 291 292 293 294 295 296 297 298 299 300 301 302 303 304 305 306 307 308 309 310 311 312 313 314 315 316 317 318 319 320 321 322 323 324 325 326 327 328 329 330 331 332 333 334 335 336 337 338 339 340 341 342 343 344 345 346 347 348 349 350 351 352 353 354 355 356 357 358 359 360 361 362 363 364 365 366 367 368 369 370 371 372 373 374 375 376 377 378 379 380 381 382 383 384 385 386 387 388 389 390 391 392 393 394 395 396 397 398 399 400 401 402 403 404 405 406 407 408 409 410 411 412 413 414 415 416 417 418 419 420 421 422 423 424 425 426 427 428 429 430 431 432 433 434 435 436 437 438 439 440 441 442 443 444 445 446 447 448 449 450 451 452 453 454 455 456 457 458 459 460 461 462 463 464 465 466 467 468 469 470 471 472 473 474 475 476 477 478 479 480 481 482 483 484 485 486 487 488 489 490 491 492 493 494 495 496 497 498 499 500 501 502 503 504 505 506 507 508 509 510 511 512 513 514 515 516 517 518 519 520 521 522 523 524 525 526 527 528 529 530 531 532 533 534 535 536 537 538 539 540 541 542 543 544 545 546 547 548 549 550 551 552 553 554 555 556 557 558 559 560 561 562 563 564 565 566 567 568 569 570 571 572 573 574 575 576 577 578 579 580 581 582 583 584 585 586 587 588 589 590 591 592 593 594 595 596 597 598 599 600 601 602 603 604 605 606 607 608 609 610 611 612 613 614 615 616 617 618 619 620 621 622 623 624 625 626 627 628 629 630 631 632 633 634 635 636 637 638 639 640 641 642 643 644 645 646 647 648 649 650 651 652 653 654 655 656 657 658 659 660 661 662 663 664 0
-1 -105 0
-2 -105 0
-3 -105 0
1 2 3 105 0
-4 -106 0
-5 -106 0
-6 -106 0
4 5 6 106 0
105 -107 0
106 -107 0
-7 -107 0
-8 -107 0
7 8 107 -105 -106 0
-7 -8 -108 0
7 8 -108 0
8 108 -7 0
7 108 -8 0
109 -1 0
1 -109 0
-2 -109 -110 0
2 109 -110 0
109 110 -2 0
2 110 -109 0
2 -111 0
109 -111 0
111 -2 -109 0
112 -111 0
111 -112 0
-3 -112 -113 0
3 112 -113 0
112 113 -3 0
3 113 -112 0
3 -114 0
112 -114 0
114 -3 -112 0
115 -114 0
114 -115 0
-108 -116 0
-1 -116 0
108 1 116 0
108 -117 0
1 -117 0
117 -108 -1 0
118 -116 0
118 -117 0
116 117 -118 0
-108 -119 0
110 -119 0
108 119 -110 0
108 -120 0
2 -120 0
120 -108 -2 0
121 -119 0
121 -120 0
119 120 -121 0
-108 -122 0
113 -122 0
108 122 -113 0
108 -123 0
3 -123 0
123 -108 -3 0
124 -122 0
124 -123 0
122 123 -124 0
-9 -118 -125 0
9 118 -125 0
118 125 -9 0
9 125 -118 0
-10 -121 -126 0
10 121 -126 0
121 126 -10 0
10 126 -121 0
-11 -124 -127 0
11 124 -127 0
124 127 -11 0
11 127 -124 0
-125 -128 0
-126 -128 0
-127 -128 0
125 126 127 128 0
129 -4 0
4 -129 0
-5 -129 -130 0
5 129 -130 0
129 130 -5 0
5 130 -129 0
5 -131 0
129 -131 0
131 -5 -129 0
132 -131 0
131 -132 0
-6 -132 -133 0
6 132 -133 0
132 133 -6 0
6 133 -132 0
6 -134 0
132 -134 0
134 -6 -132 0
135 -134 0
134 -135 0
-108 -136 0
4 -136 0
108 136 -4 0
108 -137 0
-4 -137 0
4 137 -108 0
138 -136 0
138 -137 0
136 137 -138 0
-108 -139 0
5 -139 0
108 139 -5 0
108 -140 0
130 -140 0
140 -108 -130 0
141 -139 0
141 -140 0
139 140 -141 0
-108 -142 0
6 -142 0
108 142 -6 0
108 -143 0
133 -143 0
143 -108 -133 0
144 -142 0
144 -143 0
142 143 -144 0
-12 -138 -145 0
12 138 -145 0
138 145 -12 0
12 145 -138 0
-13 -141 -146 0
13 141 -146 0
141 146 -13 0
13 146 -141 0
-14 -144 -147 0
14 144 -147 0
144 147 -14 0
14 147 -144 0
-145 -148 0
-146 -148 0
-147 -148 0
145 146 147 148 0
8 -15 -149 0
15 -8 -149 0
149 -15 -8 0
15 8 149 0
-16 -7 -150 0
16 7 -150 0
7 150 -16 0
16 150 -7 0
128 -151 0
148 -151 0
-149 -151 0
-150 -151 0
149 150 151 -128 -148 0
-15 -16 -152 0
15 16 -152 0
16 152 -15 0
15 152 -16 0
153 -9 0
9 -153 0
-10 -153 -154 0
10 153 -154 0
153 154 -10 0
10 154 -153 0
10 -155 0
153 -155 0
155 -10 -153 0
156 -155 0
155 -156 0
-11 -156 -157 0
11 156 -157 0
156 157 -11 0
11 157 -156 0
11 -158 0
156 -158 0
158 -11 -156 0
159 -158 0
158 -159 0
-152 -160 0
-9 -160 0
152 9 160 0
152 -161 0
9 -161 0
161 -152 -9 0
162 -160 0
162 -161 0
160 161 -162 0
-152 -163 0
154 -163 0
152 163 -154 0
152 -164 0
10 -164 0
164 -152 -10 0
165 -163 0
165 -164 0
163 164 -165 0
-152 -166 0
157 -166 0
152 166 -157 0
152 -167 0
11 -167 0
167 -152 -11 0
168 -166 0
168 -167 0
166 167 -168 0
-17 -162 -169 0
17 162 -169 0
162 169 -17 0
17 169 -162 0
-18 -165 -170 0
18 165 -170 0
165 170 -18 0
18 170 -165 0
-19 -168 -171 0
19 168 -171 0
168 171 -19 0
19 171 -168 0
-169 -172 0
-170 -172 0
-171 -172 0
169 170 171 172 0
173 -12 0
12 -173 0
-13 -173 -174 0
13 173 -174 0
173 174 -13 0
13 174 -173 0
13 -175 0
173 -175 0
175 -13 -173 0
176 -175 0
175 -176 0
-14 -176 -177 0
14 176 -177 0
176 177 -14 0
14 177 -176 0
14 -178 0
176 -178 0
178 -14 -176 0
179 -178 0
178 -179 0
-152 -180 0
12 -180 0
152 180 -12 0
152 -181 0
-12 -181 0
12 181 -152 0
182 -180 0
182 -181 0
180 181 -182 0
-152 -183 0
13 -183 0
152 183 -13 0
152 -184 0
174 -184 0
184 -152 -174 0
185 -183 0
185 -184 0
183 184 -185 0
-152 -186 0
14 -186 0
152 186 -14 0
152 -187 0
177 -187 0
187 -152 -177 0
188 -186 0
188 -187 0
186 187 -188 0
-20 -182 -189 0
20 182 -189 0
182 189 -20 0
20 189 -182 0
-21 -185 -190 0
21 185 -190 0
185 190 -21 0
21 190 -185 0
-22 -188 -191 0
22 188 -191 0
188 191 -22 0
22 191 -188 0
-189 -192 0
-190 -192 0
-191 -192 0
189 190 191 192 0
16 -23 -193 0
23 -16 -193 0
193 -23 -16 0
23 16 193 0
-24 -15 -194 0
24 15 -194 0
15 194 -24 0
24 194 -15 0
172 -195 0
192 -195 0
-193 -195 0
-194 -195 0
193 194 195 -172 -192 0
-23 -24 -196 0
23 24 -196 0
24 196 -23 0
23 196 -24 0
197 -17 0
17 -197 0
-18 -197 -198 0
18 197 -198 0
197 198 -18 0
18 198 -197 0
18 -199 0
197 -199 0
199 -18 -197 0
200 -199 0
199 -200 0
-19 -200 -201 0
19 200 -201 0
200 201 -19 0
19 201 -200 0
19 -202 0
200 -202 0
202 -19 -200 0
203 -202 0
202 -203 0
-196 -204 0
-17 -204 0
196 17 204 0
196 -205 0
17 -205 0
205 -196 -17 0
206 -204 0
206 -205 0
204 205 -206 0
-196 -207 0
198 -207 0
196 207 -198 0
196 -208 0
18 -208 0
208 -196 -18 0
209 -207 0
209 -208 0
207 208 -209 0
-196 -210 0
201 -210 0
196 210 -201 0
196 -211 0
19 -211 0
211 -196 -19 0
212 -210 0
212 -211 0
210 211 -212 0
-25 -206 -213 0
25 206 -213 0
206 213 -25 0
25 213 -206 0
-26 -209 -214 0
26 209 -214 0
209 214 -26 0
26 214 -209 0
-27 -212 -215 0
27 212 -215 0
212 215 -27 0
27 215 -212 0
-213 -216 0
-214 -216 0
-215 -216 0
213 214 215 216 0
217 -20 0
20 -217 0
-21 -217 -218 0
21 217 -218 0
217 218 -21 0
21 218 -217 0
21 -219 0
217 -219 0
219 -21 -217 0
220 -219 0
219 -220 0
-22 -220 -221 0
22 220 -221 0
220 221 -22 0
22 221 -220 0
22 -222 0
220 -222 0
222 -22 -220 0
223 -222 0
222 -223 0
-196 -224 0
20 -224 0
196 224 -20 0
196 -225 0
-20 -225 0
20 225 -196 0
226 -224 0
226 -225 0
224 225 -226 0
-196 -227 0
21 -227 0
196 227 -21 0
196 -228 0
218 -228 0
228 -196 -218 0
229 -227 0
229 -228 0
227 228 -229 0
-196 -230 0
22 -230 0
196 230 -22 0
196 -231 0
221 -231 0
231 -196 -221 0
232 -230 0
232 -231 0
230 231 -232 0
-28 -226 -233 0
28 226 -233 0
226 233 -28 0
28 233 -226 0
-29 -229 -234 0
29 229 -234 0
229 234 -29 0
29 234 -229 0
-30 -232 -235 0
30 232 -235 0
232 235 -30 0
30 235 -232 0
-233 -236 0
-234 -236 0
-235 -236 0
233 234 235 236 0
24 -31 -237 0
31 -24 -237 0
237 -31 -24 0
31 24 237 0
-32 -23 -238 0
32 23 -238 0
23 238 -32 0
32 238 -23 0
216 -239 0
236 -239 0
-237 -239 0
-238 -239 0
237 238 239 -216 -236 0
-31 -32 -240 0
31 32 -240 0
32 240 -31 0
31 240 -32 0
241 -25 0
25 -241 0
-26 -241 -242 0
26 241 -242 0
241 242 -26 0
26 242 -241 0
26 -243 0
241 -243 0
243 -26 -241 0
244 -243 0
243 -244 0
-27 -244 -245 0
27 244 -245 0
244 245 -27 0
27 245 -244 0
27 -246 0
244 -246 0
246 -27 -244 0
247 -246 0
246 -247 0
-240 -248 0
-25 -248 0
240 25 248 0
240 -249 0
25 -249 0
249 -240 -25 0
250 -248 0
250 -249 0
248 249 -250 0
-240 -251 0
242 -251 0
240 251 -242 0
240 -252 0
26 -252 0
252 -240 -26 0
253 -251 0
253 -252 0
251 252 -253 0
-240 -254 0
245 -254 0
240 254 -245 0
240 -255 0
27 -255 0
255 -240 -27 0
256 -254 0
256 -255 0
254 255 -256 0
-33 -250 -257 0
33 250 -257 0
250 257 -33 0
33 257 -250 0
-34 -253 -258 0
34 253 -258 0
253 258 -34 0
34 258 -253 0
-35 -256 -259 0
35 256 -259 0
256 259 -35 0
35 259 -256 0
-257 -260 0
-258 -260 0
-259 -260 0
257 258 259 260 0
261 -28 0
28 -261 0
-29 -261 -262 0
29 261 -262 0
261 262 -29 0
29 262 -261 0
29 -263 0
261 -263 0
263 -29 -261 0
264 -263 0
263 -264 0
-30 -264 -265 0
30 264 -265 0
264 265 -30 0
30 265 -264 0
30 -266 0
264 -266 0
266 -30 -264 0
267 -266 0
266 -267 0
-240 -268 0
28 -268 0
240 268 -28 0
240 -269 0
-28 -269 0
28 269 -240 0
270 -268 0
270 -269 0
268 269 -270 0
-240 -271 0
29 -271 0
240 271 -29 0
240 -272 0
262 -272 0
272 -240 -262 0
273 -271 0
273 -272 0
271 272 -273 0
-240 -274 0
30 -274 0
240 274 -30 0
240 -275 0
265 -275 0
275 -240 -265 0
276 -274 0
276 -275 0
274 275 -276 0
-36 -270 -277 0
36 270 -277 0
270 277 -36 0
36 277 -270 0
-37 -273 -278 0
37 273 -278 0
273 278 -37 0
37 278 -273 0
-38 -276 -279 0
38 276 -279 0
276 279 -38 0
38 279 -276 0
-277 -280 0
-278 -280 0
-279 -280 0
277 278 279 280 0
32 -39 -281 0
39 -32 -281 0
281 -39 -32 0
39 32 281 0
-40 -31 -282 0
40 31 -282 0
31 282 -40 0
40 282 -31 0
260 -283 0
280 -283 0
-281 -283 0
-282 -283 0
281 282 283 -260 -280 0
-39 -40 -284 0
39 40 -284 0
40 284 -39 0
39 284 -40 0
285 -33 0
33 -285 0
-34 -285 -286 0
34 285 -286 0
285 286 -34 0
34 286 -285 0
34 -287 0
285 -287 0
287 -34 -285 0
288 -287 0
287 -288 0
-35 -288 -289 0
35 288 -289 0
288 289 -35 0
35 289 -288 0
35 -290 0
288 -290 0
290 -35 -288 0
291 -290 0
290 -291 0
-284 -292 0
-33 -292 0
284 33 292 0
284 -293 0
33 -293 0
293 -284 -33 0
294 -292 0
294 -293 0
292 293 -294 0
-284 -295 0
286 -295 0
284 295 -286 0
284 -296 0
34 -296 0
296 -284 -34 0
297 -295 0
297 -296 0
295 296 -297 0
-284 -298 0
289 -298 0
284 298 -289 0
284 -299 0
35 -299 0
299 -284 -35 0
300 -298 0
300 -299 0
298 299 -300 0
-41 -294 -301 0
41 294 -301 0
294 301 -41 0
41 301 -294 0
-42 -297 -302 0
42 297 -302 0
297 302 -42 0
42 302 -297 0
-43 -300 -303 0
43 300 -303 0
300 303 -43 0
43 303 -300 0
-301 -304 0
-302 -304 0
-303 -304 0
301 302 303 304 0
305 -36 0
36 -305 0
-37 -305 -306 0
37 305 -306 0
305 306 -37 0
37 306 -305 0
37 -307 0
305 -307 0
307 -37 -305 0
308 -307 0
307 -308 0
-38 -308 -309 0
38 308 -309 0
308 309 -38 0
38 309 -308 0
38 -310 0
308 -310 0
310 -38 -308 0
311 -310 0
310 -311 0
-284 -312 0
36 -312 0
284 312 -36 0
284 -313 0
-36 -313 0
36 313 -284 0
314 -312 0
314 -313 0
312 313 -314 0
-284 -315 0
37 -315 0
284 315 -37 0
284 -316 0
306 -316 0
316 -284 -306 0
317 -315 0
317 -316 0
315 316 -317 0
-284 -318 0
38 -318 0
284 318 -38 0
284 -319 0
309 -319 0
319 -284 -309 0
320 -318 0
320 -319 0
318 319 -320 0
-44 -314 -321 0
44 314 -321 0
314 321 -44 0
44 321 -314 0
-45 -317 -322 0
45 317 -322 0
317 322 -45 0
45 322 -317 0
-46 -320 -323 0
46 320 -323 0
320 323 -46 0
46 323 -320 0
-321 -324 0
-322 -324 0
-323 -324 0
321 322 323 324 0
40 -47 -325 0
47 -40 -325 0
325 -47 -40 0
47 40 325 0
-48 -39 -326 0
48 39 -326 0
39 326 -48 0
48 326 -39 0
304 -327 0
324 -327 0
-325 -327 0
-326 -327 0
325 326 327 -304 -324 0
-47 -48 -328 0
47 48 -328 0
48 328 -47 0
47 328 -48 0
329 -41 0
41 -329 0
-42 -329 -330 0
42 329 -330 0
329 330 -42 0
42 330 -329 0
42 -331 0
329 -331 0
331 -42 -329 0
332 -331 0
331 -332 0
-43 -332 -333 0
43 332 -333 0
332 333 -43 0
43 333 -332 0
43 -334 0
332 -334 0
334 -43 -332 0
335 -334 0
334 -335 0
-328 -336 0
-41 -336 0
328 41 336 0
328 -337 0
41 -337 0
337 -328 -41 0
338 -336 0
338 -337 0
336 337 -338 0
-328 -339 0
330 -339 0
328 339 -330 0
328 -340 0
42 -340 0
340 -328 -42 0
341 -339 0
341 -340 0
339 340 -341 0
-328 -342 0
333 -342 0
328 342 -333 0
328 -343 0
43 -343 0
343 -328 -43 0
344 -342 0
344 -343 0
342 343 -344 0
-49 -338 -345 0
49 338 -345 0
338 345 -49 0
49 345 -338 0
-50 -341 -346 0
50 341 -346 0
341 346 -50 0
50 346 -341 0
-51 -344 -347 0
51 344 -347 0
344 347 -51 0
51 347 -344 0
-345 -348 0
-346 -348 0
-347 -348 0
345 346 347 348 0
349 -44 0
44 -349 0
-45 -349 -350 0
45 349 -350 0
349 350 -45 0
45 350 -349 0
45 -351 0
349 -351 0
351 -45 -349 0
352 -351 0
351 -352 0
-46 -352 -353 0
46 352 -353 0
352 353 -46 0
46 353 -352 0
46 -354 0
352 -354 0
354 -46 -352 0
355 -354 0
354 -355 0
-328 -356 0
44 -356 0
328 356 -44 0
328 -357 0
-44 -357 0
44 357 -328 0
358 -356 0
358 -357 0
356 357 -358 0
-328 -359 0
45 -359 0
328 359 -45 0
328 -360 0
350 -360 0
360 -328 -350 0
361 -359 0
361 -360 0
359 360 -361 0
-328 -362 0
46 -362 0
328 362 -46 0
328 -363 0
353 -363 0
363 -328 -353 0
364 -362 0
364 -363 0
362 363 -364 0
-52 -358 -365 0
52 358 -365 0
358 365 -52 0
52 365 -358 0
-53 -361 -366 0
53 361 -366 0
361 366 -53 0
53 366 -361 0
-54 -364 -367 0
54 364 -367 0
364 367 -54 0
54 367 -364 0
-365 -368 0
-366 -368 0
-367 -368 0
365 366 367 368 0
48 -55 -369 0
55 -48 -369 0
369 -55 -48 0
55 48 369 0
-56 -47 -370 0
56 47 -370 0
47 370 -56 0
56 370 -47 0
348 -371 0
368 -371 0
-369 -371 0
-370 -371 0
369 370 371 -348 -368 0
107 -372 0
151 -372 0
195 -372 0
239 -372 0
283 -372 0
327 -372 0
371 -372 0
372 -107 -151 -195 -239 -283 -327 -371 0
-57 -373 0
-58 -373 0
-59 -373 0
57 58 59 373 0
-60 -374 0
-61 -374 0
-62 -374 0
60 61 62 374 0
373 -375 0
374 -375 0
-63 -375 0
-64 -375 0
63 64 375 -373 -374 0
-63 -64 -376 0
63 64 -376 0
64 376 -63 0
63 376 -64 0
377 -57 0
57 -377 0
-58 -377 -378 0
58 377 -378 0
377 378 -58 0
58 378 -377 0
58 -379 0
377 -379 0
379 -58 -377 0
380 -379 0
379 -380 0
-59 -380 -381 0
59 380 -381 0
380 381 -59 0
59 381 -380 0
59 -382 0
380 -382 0
382 -59 -380 0
383 -382 0
382 -383 0
-376 -384 0
-57 -384 0
376 57 384 0
376 -385 0
57 -385 0
385 -376 -57 0
386 -384 0
386 -385 0
384 385 -386 0
-376 -387 0
378 -387 0
376 387 -378 0
376 -388 0
58 -388 0
388 -376 -58 0
389 -387 0
389 -388 0
387 388 -389 0
-376 -390 0
381 -390 0
376 390 -381 0
376 -391 0
59 -391 0
391 -376 -59 0
392 -390 0
392 -391 0
390 391 -392 0
-65 -386 -393 0
65 386 -393 0
386 393 -65 0
65 393 -386 0
-66 -389 -394 0
66 389 -394 0
389 394 -66 0
66 394 -389 0
-67 -392 -395 0
67 392 -395 0
392 395 -67 0
67 395 -392 0
-393 -396 0
-394 -396 0
-395 -396 0
393 394 395 396 0
397 -60 0
60 -397 0
-61 -397 -398 0
61 397 -398 0
397 398 -61 0
61 398 -397 0
61 -399 0
397 -399 0
399 -61 -397 0
400 -399 0
399 -400 0
-62 -400 -401 0
62 400 -401 0
400 401 -62 0
62 401 -400 0
62 -402 0
400 -402 0
402 -62 -400 0
403 -402 0
402 -403 0
-376 -404 0
60 -404 0
376 404 -60 0
376 -405 0
-60 -405 0
60 405 -376 0
406 -404 0
406 -405 0
404 405 -406 0
-376 -407 0
61 -407 0
376 407 -61 0
376 -408 0
398 -408 0
408 -376 -398 0
409 -407 0
409 -408 0
407 408 -409 0
-376 -410 0
62 -410 0
376 410 -62 0
376 -411 0
401 -411 0
411 -376 -401 0
412 -410 0
412 -411 0
410 411 -412 0
-68 -406 -413 0
68 406 -413 0
406 413 -68 0
68 413 -406 0
-69 -409 -414 0
69 409 -414 0
409 414 -69 0
69 414 -409 0
-70 -412 -415 0
70 412 -415 0
412 415 -70 0
70 415 -412 0
-413 -416 0
-414 -416 0
-415 -416 0
413 414 415 416 0
64 -71 -417 0
71 -64 -417 0
417 -71 -64 0
71 64 417 0
-72 -63 -418 0
72 63 -418 0
63 418 -72 0
72 418 -63 0
396 -419 0
416 -419 0
-417 -419 0
-418 -419 0
417 418 419 -396 -416 0
-71 -72 -420 0
71 72 -420 0
72 420 -71 0
71 420 -72 0
421 -65 0
65 -421 0
-66 -421 -422 0
66 421 -422 0
421 422 -66 0
66 422 -421 0
66 -423 0
421 -423 0
423 -66 -421 0
424 -423 0
423 -424 0
-67 -424 -425 0
67 424 -425 0
424 425 -67 0
67 425 -424 0
67 -426 0
424 -426 0
426 -67 -424 0
427 -426 0
426 -427 0
-420 -428 0
-65 -428 0
420 65 428 0
420 -429 0
65 -429 0
429 -420 -65 0
430 -428 0
430 -429 0
428 429 -430 0
-420 -431 0
422 -431 0
420 431 -422 0
420 -432 0
66 -432 0
432 -420 -66 0
433 -431 0
433 -432 0
431 432 -433 0
-420 -434 0
425 -434 0
420 434 -425 0
420 -435 0
67 -435 0
435 -420 -67 0
436 -434 0
436 -435 0
434 435 -436 0
-73 -430 -437 0
73 430 -437 0
430 437 -73 0
73 437 -430 0
-74 -433 -438 0
74 433 -438 0
433 438 -74 0
74 438 -433 0
-75 -436 -439 0
75 436 -439 0
436 439 -75 0
75 439 -436 0
-437 -440 0
-438 -440 0
-439 -440 0
437 438 439 440 0
441 -68 0
68 -441 0
-69 -441 -442 0
69 441 -442 0
441 442 -69 0
69 442 -441 0
69 -443 0
441 -443 0
443 -69 -441 0
444 -443 0
443 -444 0
-70 -444 -445 0
70 444 -445 0
444 445 -70 0
70 445 -444 0
70 -446 0
444 -446 0
446 -70 -444 0
447 -446 0
446 -447 0
-420 -448 0
68 -448 0
420 448 -68 0
420 -449 0
-68 -449 0
68 449 -420 0
450 -448 0
450 -449 0
448 449 -450 0
-420 -451 0
69 -451 0
420 451 -69 0
420 -452 0
442 -452 0
452 -420 -442 0
453 -451 0
453 -452 0
451 452 -453 0
-420 -454 0
70 -454 0
420 454 -70 0
420 -455 0
445 -455 0
455 -420 -445 0
456 -454 0
456 -455 0
454 455 -456 0
-76 -450 -457 0
76 450 -457 0
450 457 -76 0
76 457 -450 0
-77 -453 -458 0
77 453 -458 0
453 458 -77 0
77 458 -453 0
-78 -456 -459 0
78 456 -459 0
456 459 -78 0
78 459 -456 0
-457 -460 0
-458 -460 0
-459 -460 0
457 458 459 460 0
72 -79 -461 0
79 -72 -461 0
461 -79 -72 0
79 72 461 0
-80 -71 -462 0
80 71 -462 0
71 462 -80 0
80 462 -71 0
440 -463 0
460 -463 0
-461 -463 0
-462 -463 0
461 462 463 -440 -460 0
-79 -80 -464 0
79 80 -464 0
80 464 -79 0
79 464 -80 0
465 -73 0
73 -465 0
-74 -465 -466 0
74 465 -466 0
465 466 -74 0
74 466 -465 0
74 -467 0
465 -467 0
467 -74 -465 0
468 -467 0
467 -468 0
-75 -468 -469 0
75 468 -469 0
468 469 -75 0
75 469 -468 0
75 -470 0
468 -470 0
470 -75 -468 0
471 -470 0
470 -471 0
-464 -472 0
-73 -472 0
464 73 472 0
464 -473 0
73 -473 0
473 -464 -73 0
474 -472 0
474 -473 0
472 473 -474 0
-464 -475 0
466 -475 0
464 475 -466 0
464 -476 0
74 -476 0
476 -464 -74 0
477 -475 0
477 -476 0
475 476 -477 0
-464 -478 0
469 -478 0
464 478 -469 0
464 -479 0
75 -479 0
479 -464 -75 0
480 -478 0
480 -479 0
478 479 -480 0
-81 -474 -481 0
81 474 -481 0
474 481 -81 0
81 481 -474 0
-82 -477 -482 0
82 477 -482 0
477 482 -82 0
82 482 -477 0
-83 -480 -483 0
83 480 -483 0
480 483 -83 0
83 483 -480 0
-481 -484 0
-482 -484 0
-483 -484 0
481 482 483 484 0
485 -76 0
76 -485 0
-77 -485 -486 0
77 485 -486 0
485 486 -77 0
77 486 -485 0
77 -487 0
485 -487 0
487 -77 -485 0
488 -487 0
487 -488 0
-78 -488 -489 0
78 488 -489 0
488 489 -78 0
78 489 -488 0
78 -490 0
488 -490 0
490 -78 -488 0
491 -490 0
490 -491 0
-464 -492 0
76 -492 0
464 492 -76 0
464 -493 0
-76 -493 0
76 493 -464 0
494 -492 0
494 -493 0
492 493 -494 0
-464 -495 0
77 -495 0
464 495 -77 0
464 -496 0
486 -496 0
496 -464 -486 0
497 -495 0
497 -496 0
495 496 -497 0
-464 -498 0
78 -498 0
464 498 -78 0
464 -499 0
489 -499 0
499 -464 -489 0
500 -498 0
500 -499 0
498 499 -500 0
-84 -494 -501 0
84 494 -501 0
494 501 -84 0
84 501 -494 0
-85 -497 -502 0
85 497 -502 0
497 502 -85 0
85 502 -497 0
-86 -500 -503 0
86 500 -503 0
500 503 -86 0
86 503 -500 0
-501 -504 0
-502 -504 0
-503 -504 0
501 502 503 504 0
80 -87 -505 0
87 -80 -505 0
505 -87 -80 0
87 80 505 0
-88 -79 -506 0
88 79 -506 0
79 506 -88 0
88 506 -79 0
484 -507 0
504 -507 0
-505 -507 0
-506 -507 0
505 506 507 -484 -504 0
-87 -88 -508 0
87 88 -508 0
88 508 -87 0
87 508 -88 0
509 -81 0
81 -509 0
-82 -509 -510 0
82 509 -510 0
509 510 -82 0
82 510 -509 0
82 -511 0
509 -511 0
511 -82 -509 0
512 -511 0
511 -512 0
-83 -512 -513 0
83 512 -513 0
512 513 -83 0
83 513 -512 0
83 -514 0
512 -514 0
514 -83 -512 0
515 -514 0
514 -515 0
-508 -516 0
-81 -516 0
508 81 516 0
508 -517 0
81 -517 0
517 -508 -81 0
518 -516 0
518 -517 0
516 517 -518 0
-508 -519 0
510 -519 0
508 519 -510 0
508 -520 0
82 -520 0
520 -508 -82 0
521 -519 0
521 -520 0
519 520 -521 0
-508 -522 0
513 -522 0
508 522 -513 0
508 -523 0
83 -523 0
523 -508 -83 0
524 -522 0
524 -523 0
522 523 -524 0
-89 -518 -525 0
89 518 -525 0
518 525 -89 0
89 525 -518 0
-90 -521 -526 0
90 521 -526 0
521 526 -90 0
90 526 -521 0
-91 -524 -527 0
91 524 -527 0
524 527 -91 0
91 527 -524 0
-525 -528 0
-526 -528 0
-527 -528 0
525 526 527 528 0
529 -84 0
84 -529 0
-85 -529 -530 0
85 529 -530 0
529 530 -85 0
85 530 -529 0
85 -531 0
529 -531 0
531 -85 -529 0
532 -531 0
531 -532 0
-86 -532 -533 0
86 532 -533 0
532 533 -86 0
86 533 -532 0
86 -534 0
532 -534 0
534 -86 -532 0
535 -534 0
534 -535 0
-508 -536 0
84 -536 0
508 536 -84 0
508 -537 0
-84 -537 0
84 537 -508 0
538 -536 0
538 -537 0
536 537 -538 0
-508 -539 0
85 -539 0
508 539 -85 0
508 -540 0
530 -540 0
540 -508 -530 0
541 -539 0
541 -540 0
539 540 -541 0
-508 -542 0
86 -542 0
508 542 -86 0
508 -543 0
533 -543 0
543 -508 -533 0
544 -542 0
544 -543 0
542 543 -544 0
-92 -538 -545 0
92 538 -545 0
538 545 -92 0
92 545 -538 0
-93 -541 -546 0
93 541 -546 0
541 546 -93 0
93 546 -541 0
-94 -544 -547 0
94 544 -547 0
544 547 -94 0
94 547 -544 0
-545 -548 0
-546 -548 0
-547 -548 0
545 546 547 548 0
88 -95 -549 0
95 -88 -549 0
549 -95 -88 0
95 88 549 0
-96 -87 -550 0
96 87 -550 0
87 550 -96 0
96 550 -87 0
528 -551 0
548 -551 0
-549 -551 0
-550 -551 0
549 550 551 -528 -548 0
-95 -96 -552 0
95 96 -552 0
96 552 -95 0
95 552 -96 0
553 -89 0
89 -553 0
-90 -553 -554 0
90 553 -554 0
553 554 -90 0
90 554 -553 0
90 -555 0
553 -555 0
555 -90 -553 0
556 -555 0
555 -556 0
-91 -556 -557 0
91 556 -557 0
556 557 -91 0
91 557 -556 0
91 -558 0
556 -558 0
558 -91 -556 0
559 -558 0
558 -559 0
-552 -560 0
-89 -560 0
552 89 560 0
552 -561 0
89 -561 0
561 -552 -89 0
562 -560 0
562 -561 0
560 561 -562 0
-552 -563 0
554 -563 0
552 563 -554 0
552 -564 0
90 -564 0
564 -552 -90 0
565 -563 0
565 -564 0
563 564 -565 0
-552 -566 0
557 -566 0
552 566 -557 0
552 -567 0
91 -567 0
567 -552 -91 0
568 -566 0
568 -567 0
566 567 -568 0
-97 -562 -569 0
97 562 -569 0
562 569 -97 0
97 569 -562 0
-98 -565 -570 0
98 565 -570 0
565 570 -98 0
98 570 -565 0
-99 -568 -571 0
99 568 -571 0
568 571 -99 0
99 571 -568 0
-569 -572 0
-570 -572 0
-571 -572 0
569 570 571 572 0
573 -92 0
92 -573 0
-93 -573 -574 0
93 573 -574 0
573 574 -93 0
93 574 -573 0
93 -575 0
573 -575 0
575 -93 -573 0
576 -575 0
575 -576 0
-94 -576 -577 0
94 576 -577 0
576 577 -94 0
94 577 -576 0
94 -578 0
576 -578 0
578 -94 -576 0
579 -578 0
578 -579 0
-552 -580 0
92 -580 0
552 580 -92 0
552 -581 0
-92 -581 0
92 581 -552 0
582 -580 0
582 -581 0
580 581 -582 0
-552 -583 0
93 -583 0
552 583 -93 0
552 -584 0
574 -584 0
584 -552 -574 0
585 -583 0
585 -584 0
583 584 -585 0
-552 -586 0
94 -586 0
552 586 -94 0
552 -587 0
577 -587 0
587 -552 -577 0
588 -586 0
588 -587 0
586 587 -588 0
-100 -582 -589 0
100 582 -589 0
582 589 -100 0
100 589 -582 0
-101 -585 -590 0
101 585 -590 0
585 590 -101 0
101 590 -585 0
-102 -588 -591 0
102 588 -591 0
588 591 -102 0
102 591 -588 0
-589 -592 0
-590 -592 0
-591 -592 0
589 590 591 592 0
96 -103 -593 0
103 -96 -593 0
593 -103 -96 0
103 96 593 0
-104 -95 -594 0
104 95 -594 0
95 594 -104 0
104 594 -95 0
572 -595 0
592 -595 0
-593 -595 0
-594 -595 0
593 594 595 -572 -592 0
375 -596 0
419 -596 0
463 -596 0
507 -596 0
551 -596 0
595 -596 0
596 -375 -419 -463 -507 -551 -595 0
-49 -57 -597 0
49 57 -597 0
57 597 -49 0
49 597 -57 0
-50 -58 -598 0
50 58 -598 0
58 598 -50 0
50 598 -58 0
-51 -59 -599 0
51 59 -599 0
59 599 -51 0
51 599 -59 0
-597 -600 0
-598 -600 0
-599 -600 0
597 598 599 600 0
-52 -60 -601 0
52 60 -601 0
60 601 -52 0
52 601 -60 0
-53 -61 -602 0
53 61 -602 0
61 602 -53 0
53 602 -61 0
-54 -62 -603 0
54 62 -603 0
62 603 -54 0
54 603 -62 0
-601 -604 0
-602 -604 0
-603 -604 0
601 602 603 604 0
-55 -63 -605 0
55 63 -605 0
63 605 -55 0
55 605 -63 0
-56 -64 -606 0
56 64 -606 0
64 606 -56 0
56 606 -64 0
600 -607 0
604 -607 0
-605 -607 0
-606 -607 0
605 606 607 -600 -604 0
-49 -65 -608 0
49 65 -608 0
65 608 -49 0
49 608 -65 0
-50 -66 -609 0
50 66 -609 0
66 609 -50 0
50 609 -66 0
-51 -67 -610 0
51 67 -610 0
67 610 -51 0
51 610 -67 0
-608 -611 0
-609 -611 0
-610 -611 0
608 609 610 611 0
-52 -68 -612 0
52 68 -612 0
68 612 -52 0
52 612 -68 0
-53 -69 -613 0
53 69 -613 0
69 613 -53 0
53 613 -69 0
-54 -70 -614 0
54 70 -614 0
70 614 -54 0
54 614 -70 0
-612 -615 0
-613 -615 0
-614 -615 0
612 613 614 615 0
-55 -71 -616 0
55 71 -616 0
71 616 -55 0
55 616 -71 0
-56 -72 -617 0
56 72 -617 0
72 617 -56 0
56 617 -72 0
611 -618 0
615 -618 0
-616 -618 0
-617 -618 0
616 617 618 -611 -615 0
-49 -73 -619 0
49 73 -619 0
73 619 -49 0
49 619 -73 0
-50 -74 -620 0
50 74 -620 0
74 620 -50 0
50 620 -74 0
-51 -75 -621 0
51 75 -621 0
75 621 -51 0
51 621 -75 0
-619 -622 0
-620 -622 0
-621 -622 0
619 620 621 622 0
-52 -76 -623 0
52 76 -623 0
76 623 -52 0
52 623 -76 0
-53 -77 -624 0
53 77 -624 0
77 624 -53 0
53 624 -77 0
-54 -78 -625 0
54 78 -625 0
78 625 -54 0
54 625 -78 0
-623 -626 0
-624 -626 0
-625 -626 0
623 624 625 626 0
-55 -79 -627 0
55 79 -627 0
79 627 -55 0
55 627 -79 0
-56 -80 -628 0
56 80 -628 0
80 628 -56 0
56 628 -80 0
622 -629 0
626 -629 0
-627 -629 0
-628 -629 0
627 628 629 -622 -626 0
-49 -81 -630 0
49 81 -630 0
81 630 -49 0
49 630 -81 0
-50 -82 -631 0
50 82 -631 0
82 631 -50 0
50 631 -82 0
-51 -83 -632 0
51 83 -632 0
83 632 -51 0
51 632 -83 0
-630 -633 0
-631 -633 0
-632 -633 0
630 631 632 633 0
-52 -84 -634 0
52 84 -634 0
84 634 -52 0
52 634 -84 0
-53 -85 -635 0
53 85 -635 0
85 635 -53 0
53 635 -85 0
-54 -86 -636 0
54 86 -636 0
86 636 -54 0
54 636 -86 0
-634 -637 0
-635 -637 0
-636 -637 0
634 635 636 637 0
-55 -87 -638 0
55 87 -638 0
87 638 -55 0
55 638 -87 0
-56 -88 -639 0
56 88 -639 0
88 639 -56 0
56 639 -88 0
633 -640 0
637 -640 0
-638 -640 0
-639 -640 0
638 639 640 -633 -637 0
-49 -89 -641 0
49 89 -641 0
89 641 -49 0
49 641 -89 0
-50 -90 -642 0
50 90 -642 0
90 642 -50 0
50 642 -90 0
-51 -91 -643 0
51 91 -643 0
91 643 -51 0
51 643 -91 0
-641 -644 0
-642 -644 0
-643 -644 0
641 642 643 644 0
-52 -92 -645 0
52 92 -645 0
92 645 -52 0
52 645 -92 0
-53 -93 -646 0
53 93 -646 0
93 646 -53 0
53 646 -93 0
-54 -94 -647 0
54 94 -647 0
94 647 -54 0
54 647 -94 0
-645 -648 0
-646 -648 0
-647 -648 0
645 646 647 648 0
-55 -95 -649 0
55 95 -649 0
95 649 -55 0
55 649 -95 0
-56 -96 -650 0
56 96 -650 0
96 650 -56 0
56 650 -96 0
644 -651 0
648 -651 0
-649 -651 0
-650 -651 0
649 650 651 -644 -648 0
-49 -97 -652 0
49 97 -652 0
97 652 -49 0
49 652 -97 0
-50 -98 -653 0
50 98 -653 0
98 653 -50 0
50 653 -98 0
-51 -99 -654 0
51 99 -654 0
99 654 -51 0
51 654 -99 0
-652 -655 0
-653 -655 0
-654 -655 0
652 653 654 655 0
-52 -100 -656 0
52 100 -656 0
100 656 -52 0
52 656 -100 0
-53 -101 -657 0
53 101 -657 0
101 657 -53 0
53 657 -101 0
-54 -102 -658 0
54 102 -658 0
102 658 -54 0
54 658 -102 0
-656 -659 0
-657 -659 0
-658 -659 0
656 657 658 659 0
-55 -103 -660 0
55 103 -660 0
103 660 -55 0
55 660 -103 0
-56 -104 -661 0
56 104 -661 0
104 661 -56 0
56 661 -104 0
655 -662 0
659 -662 0
-660 -662 0
-661 -662 0
660 661 662 -655 -659 0
663 -607 0
663 -618 0
663 -629 0
663 -640 0
663 -651 0
663 -662 0
607 618 629 640 651 662 -663 0
596 -664 0
663 -664 0
664 -596 -663 0
664 -372 0
